430 432 433 434 435 436 437 438 454 455 456 457 458 459 460 462 461 452 453 440 439 443 444 445 442 446 447 448 449 441 450 451 311 312 313 310 309 308 505 504 503 502 501 500 499 498 519 518 497 496 463 464 465 470 469 468 467 466 571 572 573 0 1 2 3 4 5 6 7 8 9 10 11 14 15 16 17 18 19 20 568 569 570 474 473 472 471 495 494 524 525 493 492 491 490 526 523 522 521 520 517 516 515 514 513 512 527 528 529 530 531 532 533 489 488 534 231 230 229 228 227 189 190 191 192 193 194 195 196 197 198 199 200 201 164 166 167 163 168 169 171 170 172 110 111 112 114 115 116 117 121 120 122 123 71 72 75 74 73 119 118 106 105 104 103 547 546 545 544 543 541 542 107 109 108 173 174 175 176 177 178 179 180 181 182 183 184 185 186 188 187 540 538 539 537 536 535 487 486 485 484 483 482 481 480 479 478 477 476 475 567 27 26 24 21 13 12 23 22 25 28 29 31 30 32 36 37 38 35 33 34 558 559 560 561 562 563 565 566 564 549 548 550 551 101 102 100 99 552 553 554 555 556 557 41 40 39 42 43 44 45 46 47 48 49 54 52 51 84 50 91 92 93 97 98 96 95 94 89 90 87 86 85 82 83 53 55 56 57 58 59 60 61 63 62 79 80 81 88 78 77 76 64 65 66 67 68 70 69 124 125 126 127 128 129 130 137 138 139 140 141 136 135 134 133 132 131 113 161 162 160 154 155 156 159 157 158 145 146 144 143 142 151 150 149 152 148 147 153 165 203 204 202 208 207 206 205 209 210 211 212 213 214 215 216 217 223 224 222 221 220 218 219 226 225 232 233 234 235 236 511 510 509 237 240 239 238 246 247 245 244 243 242 241 248 249 250 251 252 254 253 255 261 260 259 258 262 263 264 265 266 267 268 270 269 271 272 273 274 275 292 291 293 294 295 296 297 298 299 257 256 300 301 302 508 507 506 307 303 304 306 305 318 317 319 320 321 316 314 315 374 373 322 323 324 325 326 327 328 329 366 342 330 331 332 288 289 290 276 277 278 279 282 281 280 287 286 285 284 283 334 335 333 336 337 338 339 340 341 343 344 345 346 347 348 349 350 351 352 415 416 414 413 417 419 418 410 411 412 356 355 353 354 357 358 359 360 361 362 363 364 365 367 368 369 370 372 371 396 395 375 376 377 378 379 380 381 390 389 388 391 392 393 394 397 398 399 400 401 402 403 404 405 406 407 408 409 384 383 385 387 386 382 425 424 422 420 421 423 426 427 428 429 431